Gurobi Optimizer version 9.1.0 build v9.1.0rc0 (linux64)
Thread count: 8 physical cores, 16 logical processors, using up to 16 threads
Optimize a model with 175196 rows, 160320 columns and 920780 nonzeros
Model fingerprint: 0x2bb09ef0
Variable types: 0 continuous, 160320 integer (160320 binary)
Coefficient statistics:
  Matrix range     [1e+00, 1e+00]
  Objective range  [1e+01, 1e+05]
  Bounds range     [1e+00, 1e+00]
  RHS range        [1e+00, 1e+03]
Presolve removed 20 rows and 20 columns
Presolve time: 2.41s
Presolved: 175176 rows, 160300 columns, 920740 nonzeros
Variable types: 0 continuous, 160300 integer (160300 binary)
Found heuristic solution: objective 812049.00000

Concurrent LP optimizer: primal simplex, dual simplex, and barrier
Showing barrier log only...

Root barrier log...

Ordering time: 0.06s

Barrier statistics:
 Dense cols : 160
 AA' NZ     : 8.027e+05
 Factor NZ  : 3.695e+06 (roughly 170 MBytes of memory)
 Factor Ops : 1.996e+08 (less than 1 second per iteration)
 Threads    : 6

                  Objective                Residual
Iter       Primal          Dual         Primal    Dual     Compl     Time
   0   9.30569946e+07 -1.23881698e+05  1.06e+02 0.00e+00  2.44e+03     7s
   1   1.03012475e+06 -3.02531054e+07  1.86e-01 2.47e+03  6.84e+01     7s
   2   9.42790968e+05 -3.71347735e+06  4.60e-02 2.43e+02  1.02e+01     7s
   3   8.92565443e+05 -1.01489315e+05  6.07e-03 5.61e+01  2.15e+00     8s
   4   8.12815967e+05  4.81514010e+05  5.97e-04 1.54e+01  7.10e-01     8s
   5   7.72237260e+05  6.27034734e+05  2.17e-04 8.36e+00  3.09e-01     9s
   6   7.61910748e+05  6.74009673e+05  1.69e-04 4.01e+00  1.85e-01     9s
   7   7.50092854e+05  6.89747344e+05  1.21e-04 2.55e+00  1.27e-01    10s
   8   7.39087439e+05  6.99204502e+05  7.94e-05 1.70e+00  8.37e-02    10s
   9   7.34828933e+05  7.03447778e+05  6.40e-05 1.32e+00  6.58e-02    10s
  10   7.30661886e+05  7.04809060e+05  4.95e-05 1.20e+00  5.44e-02    11s
  11   7.27957856e+05  7.08692088e+05  3.96e-05 8.37e-01  4.05e-02    11s
  12   7.25128023e+05  7.10303874e+05  2.95e-05 6.84e-01  3.12e-02    12s
  13   7.23795612e+05  7.11970252e+05  2.48e-05 5.22e-01  2.49e-02    12s
  14   7.22561684e+05  7.12961489e+05  2.07e-05 4.23e-01  2.02e-02    12s
  15   7.21643496e+05  7.13483001e+05  1.74e-05 3.70e-01  1.72e-02    13s
  16   7.20783665e+05  7.14250941e+05  1.43e-05 2.87e-01  1.37e-02    13s
  17   7.20146823e+05  7.14698868e+05  1.21e-05 2.39e-01  1.14e-02    13s
  18   7.19546769e+05  7.15141589e+05  1.00e-05 1.91e-01  9.25e-03    14s
  19   7.19167163e+05  7.15480600e+05  8.66e-06 1.52e-01  7.72e-03    14s
  20   7.18877746e+05  7.15747973e+05  7.62e-06 1.20e-01  6.54e-03    14s
  21   7.18606180e+05  7.15842008e+05  6.68e-06 1.08e-01  5.78e-03    15s
  22   7.18308731e+05  7.15927516e+05  5.64e-06 9.77e-02  4.99e-03    15s
  23   7.18049513e+05  7.15999745e+05  4.71e-06 8.97e-02  4.31e-03    15s
  24   7.17836237e+05  7.16216933e+05  3.96e-06 6.37e-02  3.39e-03    16s
  25   7.17644288e+05  7.16279922e+05  3.27e-06 5.60e-02  2.86e-03    16s
  26   7.17546501e+05  7.16363109e+05  2.91e-06 4.65e-02  2.48e-03    16s
  27   7.17471401e+05  7.16382352e+05  2.62e-06 4.41e-02  2.28e-03    16s
  28   7.17386995e+05  7.16454384e+05  2.31e-06 3.56e-02  1.95e-03    17s
  29   7.17325323e+05  7.16470459e+05  2.10e-06 3.39e-02  1.79e-03    17s
  30   7.17278132e+05  7.16488349e+05  1.93e-06 3.18e-02  1.65e-03    17s
  31   7.17209263e+05  7.16505329e+05  1.67e-06 3.00e-02  1.48e-03    18s
  32   7.17160159e+05  7.16540672e+05  1.50e-06 2.60e-02  1.30e-03    18s
  33   7.17143648e+05  7.16548885e+05  1.44e-06 2.49e-02  1.25e-03    18s
  34   7.17093951e+05  7.16574950e+05  1.25e-06 2.16e-02  1.09e-03    19s
  35   7.17055259e+05  7.16612022e+05  1.11e-06 1.70e-02  9.28e-04    19s
  36   7.17037333e+05  7.16622393e+05  1.05e-06 1.59e-02  8.68e-04    19s
  37   7.16990041e+05  7.16652105e+05  8.70e-07 1.22e-02  7.06e-04    20s
  38   7.16957955e+05  7.16670610e+05  7.51e-07 9.88e-03  5.99e-04    20s
  39   7.16927628e+05  7.16681408e+05  6.41e-07 8.57e-03  5.14e-04    20s
  40   7.16903159e+05  7.16685579e+05  5.53e-07 8.08e-03  4.55e-04    20s
  41   7.16883517e+05  7.16695481e+05  4.81e-07 6.90e-03  3.93e-04    21s
  42   7.16865828e+05  7.16705241e+05  4.16e-07 5.77e-03  3.36e-04    21s
  43   7.16853753e+05  7.16709744e+05  3.72e-07 5.26e-03  3.01e-04    21s
  44   7.16833648e+05  7.16716561e+05  2.97e-07 4.45e-03  2.45e-04    22s
  45   7.16822640e+05  7.16722392e+05  2.55e-07 3.77e-03  2.10e-04    22s
  46   7.16813301e+05  7.16726807e+05  2.19e-07 3.29e-03  1.81e-04    22s
  47   7.16804567e+05  7.16732107e+05  1.86e-07 2.81e-03  1.51e-04    22s
  48   7.16801763e+05  7.16732998e+05  1.76e-07 2.70e-03  1.44e-04    23s
  49   7.16793015e+05  7.16737423e+05  1.43e-07 2.15e-03  1.16e-04    23s
  50   7.16789698e+05  7.16738986e+05  1.31e-07 1.94e-03  1.06e-04    23s
  51   7.16788812e+05  7.16739839e+05  1.28e-07 1.83e-03  1.02e-04    24s
  52   7.16782022e+05  7.16741508e+05  1.03e-07 1.63e-03  8.48e-05    24s
  53   7.16777176e+05  7.16743445e+05  8.50e-08 1.38e-03  7.06e-05    25s
  54   7.16773581e+05  7.16745857e+05  7.17e-08 1.07e-03  5.79e-05    25s
  55   7.16765753e+05  7.16747683e+05  4.30e-08 8.28e-04  3.80e-05    26s
  56   7.16764399e+05  7.16748911e+05  3.80e-08 6.80e-04  3.25e-05    26s
  57   7.16761748e+05  7.16749515e+05  2.81e-08 5.98e-04  2.58e-05    26s
  58   7.16758705e+05  7.16751501e+05  1.65e-08 3.33e-04  1.52e-05    26s
  59   7.16755556e+05  7.16753386e+05  5.09e-09 8.51e-05  4.54e-06    27s
  60   7.16754230e+05  7.16754055e+05  4.26e-10 1.56e-06  3.55e-07    27s
  61   7.16754082e+05  7.16754080e+05  6.33e-10 3.81e-09  2.65e-09    27s

Barrier solved model in 61 iterations and 27.18 seconds
Optimal objective 7.16754082e+05


Root crossover log...

   54733 DPushes remaining with DInf 4.0379874e-05                28s
       0 DPushes remaining with DInf 0.0000000e+00                28s

    1190 PPushes remaining with PInf 0.0000000e+00                28s
       0 PPushes remaining with PInf 0.0000000e+00                28s

  Push phase complete: Pinf 0.0000000e+00, Dinf 1.1047518e-10     28s


Root simplex log...

Iteration    Objective       Primal Inf.    Dual Inf.      Time
   10640    7.1675408e+05   0.000000e+00   0.000000e+00     28s
   10640    7.1675408e+05   0.000000e+00   0.000000e+00     28s

Solved with barrier

Root relaxation: objective 7.167541e+05, 10640 iterations, 23.11 seconds
Total elapsed time = 30.05s

    Nodes    |    Current Node    |     Objective Bounds      |     Work
 Expl Unexpl |  Obj  Depth IntInf | Incumbent    BestBd   Gap | It/Node Time

     0     0 716754.081    0 12989 812049.000 716754.081  11.7%     -   31s
H    0     0                    726089.00000 716754.081  1.29%     -   34s
H    0     0                    720009.00000 716754.081  0.45%     -   36s
H    0     0                    719238.00000 716754.081  0.35%     -   38s
     0     0 716756.170    0 12991 719238.000 716756.170  0.35%     -   50s
H    0     0                    718719.00000 716756.170  0.27%     -   52s
     0     0 716756.199    0 12994 718719.000 716756.199  0.27%     -   85s
     0     0 716758.268    0 12984 718719.000 716758.268  0.27%     -  100s
H    0     0                    718711.00000 716758.268  0.27%     -  104s
H    0     0                    718685.00000 716758.268  0.27%     -  106s
     0     0 716758.490    0 13000 718685.000 716758.490  0.27%     -  115s
     0     0 716758.603    0 12999 718685.000 716758.603  0.27%     -  121s
     0     0 716769.781    0 13007 718685.000 716769.781  0.27%     -  142s
     0     0 716770.363    0 13008 718685.000 716770.363  0.27%     -  149s
     0     0 716770.858    0 13002 718685.000 716770.858  0.27%     -  153s
     0     0 716771.073    0 13000 718685.000 716771.073  0.27%     -  159s
     0     0 716776.430    0 13012 718685.000 716776.430  0.27%     -  173s
     0     0 716776.544    0 13009 718685.000 716776.544  0.27%     -  175s
     0     0 716776.563    0 13011 718685.000 716776.563  0.27%     -  175s
     0     0 716784.431    0 13048 718685.000 716784.431  0.26%     -  187s
     0     0 716784.749    0 13037 718685.000 716784.749  0.26%     -  189s
     0     0 716784.875    0 13037 718685.000 716784.875  0.26%     -  190s
     0     0 716784.875    0 13038 718685.000 716784.875  0.26%     -  190s
     0     0 716791.973    0 13078 718685.000 716791.973  0.26%     -  203s
H    0     0                    718670.00000 716791.973  0.26%     -  207s
     0     0 716792.012    0 13067 718670.000 716792.012  0.26%     -  208s
     0     0 716801.307    0 13094 718670.000 716801.307  0.26%     -  222s
     0     0 716801.413    0 13101 718670.000 716801.413  0.26%     -  226s
     0     0 716801.413    0 13063 718670.000 716801.413  0.26%     -  233s
     0     2 716801.413    0 13044 718670.000 716801.413  0.26%     -  269s

Cutting planes:
  Gomory: 3
  Zero half: 117

Explored 1 nodes (18204 simplex iterations) in 300.05 seconds
Thread count was 16 (of 16 available processors)

Solution count 8: 718670 718685 718711 ... 812049

Time limit reached
Best objective 7.186700000000e+05, best bound 7.168015082238e+05, gap 0.2600%

User-callback calls 36953, time in user-callback 0.60 sec
Result: runtime=269.39sec; objective=718670; gap=0.2600%
Solution written to /autofs/unityaccount/cremi/mdeboute/Bureau/multi-period-flp/solution//instMulti_I20_J1000_T8_0_result.txt
